20	5
0	6	4	3	1	19	2	15
1	3	7	8	20
2	1	6
3	3	9	12	20
4	4	8	18	14	16
5	1	9
6	1	13
7	1	10
8	1	11
9	3	17	14	6
10	1	5
11	1	21
12	1	21
13	1	21
14	1	21
15	1	21
16	1	21
17	1	21
18	1	21
19	1	21
20	1	21
21	0
0	0	0	0	0	0	0
1	2	5	5	2	1	2
2	1	4	5	5	4	1
3	6	5	4	5	2	1
4	4	2	3	4	3	5
5	9	4	5	3	4	2
6	9	5	1	3	4	5
7	8	3	5	2	5	5
8	8	2	2	4	2	1
9	5	1	5	4	5	2
10	6	3	1	4	4	1
11	2	2	2	2	5	3
12	2	5	3	1	3	3
13	8	3	3	1	3	5
14	6	3	2	4	3	2
15	7	1	2	3	4	5
16	6	5	3	5	4	5
17	3	5	1	1	1	4
18	10	4	1	5	2	4
19	10	3	3	4	4	4
20	9	4	2	5	1	1
21	0	0	0	0	0	0
5	5	5	5	5
